InboundTrucks  = 10;
OutboundTrucks = 10;
InboundDoors   = 8;
OutboundDoors  = 8;
ReleaseTime    = [110,108,7,11,10,46,106,21,94,103];
UnloadTime     = [26,29,23,17,14,14,18,25,14,30];
LoadTime       = [7,18,6,12,12,6,18,5,9,10];
TransferTime   = [| 5,0,0,1,0,0,3,0,0,3 | 0,4,0,0,5,0,0,1,0,0 | 0,0,1,0,0,3,0,0,3,0 | 5,0,8,0,0,0,0,0,6,0 | 0,2,0,0,0,0,0,0,0,0 | 0,0,2,0,0,4,0,0,5,0 | 3,0,0,4,0,0,3,0,0,4 | 0,4,0,0,0,0,0,3,12,0 | 8,0,0,0,0,1,0,0,1,0 | 2,0,0,1,0,0,0,5,0,4 |];
